\ Model MasterKnapsack
\ LP format - for model browsing. Use MPS format to capture full model detail.
Minimize
 
Subject To
 b_0: 0.05 sa_0 = 1
 b_ue_1_PPE-1: - 9 sa_0 >= 10
 b_ue_2_PPE-1: 0.5 sa_0 >= 10
 b_ue_3_PPE-1: 0.5 sa_0 >= 10
 b_ue_4_PPE-1: 0.5 sa_0 >= 10
 b_ue_5_PPE-1: 0.5 sa_0 >= 10
 b_ue_6_PPE-1: 0.5 sa_0 >= 10
 b_ue_7_PPE-1: 0.5 sa_0 >= 10
 b_ue_8_PPE-1: 0.5 sa_0 >= 10
 b_ue_9_PPE-1: 0.5 sa_0 >= 10
 b_ue_10_PPE-1: 0.5 sa_0 >= 10
 b_uu_1_PPE-1: >= 0
 b_uu_2_PPE-1: >= 0
 b_uu_3_PPE-1: >= 0
 b_uu_4_PPE-1: >= 0
 b_uu_5_PPE-1: >= 0
 b_uu_6_PPE-1: >= 0
 b_uu_7_PPE-1: >= 0
 b_uu_8_PPE-1: >= 0
 b_uu_9_PPE-1: >= 0
 b_uu_10_PPE-1: >= 0
 b_uv_1_PPE-1: >= 0
 b_uv_2_PPE-1: >= 0
 b_uv_3_PPE-1: >= 0
 b_uv_4_PPE-1: >= 0
 b_uv_5_PPE-1: >= 0
 b_uv_6_PPE-1: >= 0
 b_uv_7_PPE-1: >= 0
 b_uv_8_PPE-1: >= 0
 b_uv_9_PPE-1: >= 0
 b_uv_10_PPE-1: >= 0
 b_pe_Complexity-1_CPU-1: - 0.95 sa_0 >= 1
 b_pw_1_Complexity-1_CPU-1: >= 0
 b_pw_2_Complexity-1_CPU-1: >= 0
 b_pw_3_Complexity-1_CPU-1: >= 0
 b_pw_4_Complexity-1_CPU-1: >= 0
 b_pw_5_Complexity-1_CPU-1: >= 0
 b_pw_6_Complexity-1_CPU-1: >= 0
 b_pw_7_Complexity-1_CPU-1: >= 0
 b_pw_8_Complexity-1_CPU-1: >= 0
 b_pw_9_Complexity-1_CPU-1: >= 0
 b_pw_10_Complexity-1_CPU-1: >= 0
Bounds
End
